32	0

0	1	2
5	2	3	4
9	1	5
5	1	5
4	1	6
4	2	7	8
10	1	10
5	1	9
6	1	10
4	3	11	12	13
9	3	15	16	17
6	1	14
3	1	14
3	3	15	16	17
4	2	18	21
8	3	19	20	21
7	3	19	20	21
6	2	19	20
7	2	22	23
5	2	22	23
10	1	22
4	1	24
4	1	24
1	2	25	27
1	1	26
5	2	28	29
7	2	28	29
4	2	30	31
7	1	32
2	1	32
3	1	32
0	0
